r = [
0,68,107,16,84,59,55,157,175,20,148,177,179,51,86,74,22,185,55,77,25,27,76,146,124,66,0
];
p = [
0,3,11,17,20,25,16,1,29,17,29,27,21,8,14,9,3,18,14,17,11,28,4,26,5,11,0
];
e = [
0,3,19,1,11,5,2,14,11,17,1,20,17,6,6,3,6,13,8,10,14,7,3,13,16,19,0
];
d = [
0,266,285,225,284,233,257,343,352,196,329,356,389,232,290,262,209,369,232,264,212,232,279,330,310,241,391
];
d_bar = [
0,267,286,227,286,236,259,344,355,198,332,359,391,233,291,263,210,371,233,266,213,235,280,333,311,242,391
];
w = [
0,3,19,0.5,5.5,1.666666667,1,14,3.666666667,8.5,0.333333333,6.666666667,8.5,6,6,3,6,6.5,8,5,14,2.333333333,3,4.333333333,16,19,0
];
